   C                                      
   1.0000000000000000     
    19.9221896191697709    0.0000000000000000    0.0000000000000000
     0.0000000000000000   19.9221896191697709    0.0000000000000000
     0.0000000000000000    0.0000000000000000   40.4496234075345242
   C 
   364
Direct
  0.3496815282057355  0.2857378537603381  0.0009109197058876
  0.3461967596209661  0.2912147446079913  0.0613519264664433
  0.2966791448157764  0.3419470878578679  0.0595327427119230
  0.2684916457455699  0.3581376546862813  0.0283845052400906
  0.1997180989585914  0.3753469828996856  0.0265651427171036
  0.3425235143543617  0.2965693160454634  0.1217937999686001
  0.2912838604592309  0.3455621252210577  0.1199740636987272
  0.2625556101477855  0.3607680044954691  0.0888256420288016
  0.1932289889753420  0.3755894981131931  0.0870058596911178
  0.1607933218033750  0.3734640067488542  0.0558575639149765
  0.0939987465413523  0.3497070764267036  0.0540378196342886
  0.0675017032851741  0.3308794798458834  0.0228897003683031
  0.0231034833940171  0.2756106086170149  0.0210700426961594
  0.3386649221501372  0.3017933487970623  0.1822336577503734
  0.2857658882514968  0.3489895862596910  0.1804136160757679
  0.2565297840137006  0.3631941274240873  0.1492659019149656
  0.1867331418645435  0.3756107434217526  0.1474456430444846
  0.1543915124854109  0.3723640746195045  0.1162978648104556
  0.0884559239450198  0.3463161441085560  0.1144779712984487
  0.0626255642510998  0.3265853412440265  0.0833297640778738
  0.0201613681414585  0.2698169123169478  0.0815100234233412
  0.0085298793861881  0.2394656309221119  0.0503616331988326
  0.0021728274573505  0.1688574413844393  0.0485417264836627
  0.0081975441405362  0.1369151685231671  0.0173940183589352
  0.0398291418722678  0.0734694734052042  0.0155746588525076
  0.3346260044882214  0.3068814452127171  0.2426734725014796
  0.2801307381263243  0.3522256350899156  0.2408529508093977
  0.2504225986191670  0.3654129792356358  0.2097048043381946
  0.1802378357601668  0.3754127894005208  0.2078841499947330
  0.1480282975715710  0.3710491518215733  0.1767364900067392
  0.0830331193366902  0.3427398931616210  0.1749166727887044
  0.0578997220234001  0.3221264276981159  0.1437693861624396
  0.0174195623304527  0.2639260020018668  0.1419496584200957
  0.0068431106600357  0.2331906638988954  0.1108016774515193
  0.0029248696202089  0.1624046895779827  0.1089818504172442
  0.0100498397656636  0.1306897337990307  0.0778338034927017
  0.0438552553980145  0.0683754121875424  0.0760143693953879
  0.0665612168741347  0.0451122728808571  0.0448666292732582
  0.1280377093238059  0.0098056799012909  0.0430475191542072
  0.1595718822038492  0.0019166407760878  0.0118997779946071
  0.2304316923301499  0.0041155444215661  0.0100801584298225
  0.3496934340747728  0.2856606382930238  0.3342607033159837
  0.3304142451518786  0.3118312456919483  0.3031129112738142
  0.2743878109717741  0.3552702241895176  0.3012919364325484
  0.2442417136088082  0.3674223936579608  0.2701437096276891
  0.1737533224041243  0.3749952468342741  0.2683229134346163
  0.1417125553952161  0.3695205052053510  0.2371751950759773
  0.0777323149057594  0.3389845102560898  0.2353553253872107
  0.0533285687550062  0.3175113944626133  0.2042078390992543
  0.0148840751176849  0.2579474978144276  0.2023884720372564
  0.0053728062090030  0.2268628320183907  0.1712411345636085
  0.0038989641158551  0.1559844851577239  0.1694214205322666
  0.0121136102323902  0.1245326860379521  0.1382739846212218
  0.0480518696656489  0.0634231849278848  0.1364545570411408
  0.0715513649839892  0.0409611374677823  0.1053070179105688
  0.1342124426807985  0.0078023962384322  0.1034879455326205
  0.1660011185028196  0.0010057810569108  0.0723401895444411
  0.2367430107982003  0.0056478949621095  0.0705206737577200
  0.2673695297786978  0.0165391038700591  0.0393722751085690
  0.3251543946322926  0.0576101003370724  0.0375528875172080
  0.3455098719450689  0.0829525591317264  0.0064047194859640
  0.3731537678896046  0.1482340895854151  0.0045853629763926
  0.3462039952953759  0.2911389527877404  0.3946990593291702
  0.3260339945185464  0.3166295214616852  0.3635514656512839
  0.2685449207830501  0.3581138189511819  0.3617305650585010
  0.2379967049481237  0.3692211617273671  0.3305826684910969
  0.1672893434187088  0.3743605357578375  0.3287618056493500
  0.1354556786513825  0.3677796163993037  0.2976142778749136
  0.0725682186216616  0.3350526325879315  0.2957947589173671
  0.0489186655683298  0.3127470658548148  0.2646474006595199
  0.0125589052641288  0.2518874436429783  0.2628283474678810
  0.0041261320730257  0.2204921780914759  0.2316808942087079
  0.0051011767165789  0.1496052216213783  0.2298612791127823
  0.0143933153021649  0.1184547110927596  0.1987134196199278
  0.0524197104657631  0.0586224339205614  0.1968935994935777
  0.0766804634513392  0.0369837426537032  0.1657464878112123
  0.1404487921929558  0.0060082366213337  0.1639271928892896
  0.1724558362043993  0.0003168143569496  0.1327803614501661
  0.2429948633875867  0.0073962245380272  0.1309609915747600
  0.2732293143370583  0.0193377123160872  0.0998132192468972
  0.3295629923356103  0.0623774886298349  0.0979941827403152
  0.3490310397316279  0.0884089354587232  0.0668457287589490
  0.3744052934109448  0.1546065471797604  0.0650265333148496
  0.3773196473386520  0.1869809979823813  0.0338779342833462
  0.3641857647502178  0.2566467858896857  0.0320587436980020
  0.3425287261866998  0.2964943115231833  0.4551372091440271
  0.3214912895115560  0.3212743881367501  0.4239896495795890
  0.2626080882489461  0.3607537694052567  0.4221691222893682
  0.2316950446647468  0.3708024377275549  0.3910213340630264
  0.1608529002135697  0.3735030636986707  0.3892008958525324
  0.1292646513503115  0.3658279464298815  0.3580533247356925
  0.0675460279835249  0.3309451320529320  0.3562339264698409
  0.0446805004973072  0.3078349076560940  0.3250872908781517
  0.0104491148084662  0.2457529813250758  0.3232684160889718
  0.0031057133984973  0.2140839338811062  0.2921211777810910
  0.0065258771981220  0.1432728483373467  0.2903015025889175
  0.0168847114914783  0.1124602424236514  0.2591534310145960
  0.0569514993206468  0.0539751996074997  0.2573333038139083
  0.0819433050855807  0.0331872239185600  0.2261857132690963
  0.1467411881089120  0.0044270378005251  0.2243661973513724
  0.1789261805933720  0.9998436214295197  0.1932190812267933
  0.2491788889774114  0.0093534068194288  0.1913999624288607
  0.2789857040256862  0.0223350391148927  0.1602534474462018
  0.3338012254311948  0.0672916593900865  0.1584348014416364
  0.3523609327387902  0.0939819468312493  0.1272873300374755
  0.3754349525469181  0.1610156984704219  0.1254684355532234
  0.3772311832829160  0.1934725583515871  0.0943200265491271
  0.3616961519256705  0.2626429167692592  0.0925006731019593
  0.3386823666109748  0.3017230952153653  0.5155737922072419
  0.3167979988259972  0.3257629954061017  0.4844280056656558
  0.2565887273458429  0.3631882895488587  0.4826081913537550
  0.2253457193365236  0.3721657707009172  0.4514608984447150
  0.1544516589826799  0.3724196763846805  0.4496408498449185
  0.1231460946936025  0.3636608468061056  0.4184929750307305
  0.0626705216076147  0.3266654857645932  0.4166736722274891
  0.0406195689630522  0.3027770504290714  0.3855265606374658
  0.0085540397398347  0.2395496012615368  0.3837077150052508
  0.0023078890347392  0.2076453409896146  0.3525606339787686
  0.0081681510670322  0.1369937799203811  0.3507409552667298
  0.0195831759450442  0.1065554706044338  0.3195936818895646
  0.0616396199362299  0.0494835285479027  0.3177735618177593
  0.0873321792563644  0.0295690493324727  0.2866254113422997
  0.1530822507294687  0.0030576509486480  0.2848057440644283
  0.1854069876888786  0.9995913547481194  0.2536585477985867
  0.2552895763935936  0.0115229233776262  0.2518396334678670
  0.2846299609205261  0.0255265189764557  0.2206930031910588
  0.3378593886107524  0.0723506979995321  0.2188748206939266
  0.3554914017635298  0.0996638237206682  0.1877275190625056
  0.3762371542498073  0.1674543542389699  0.1859086056749391
  0.3769142807322226  0.1999558914375186  0.1547613789695959
  0.3589998374006171  0.2685487863670630  0.1529419453525875
  0.3346620160063480  0.3068144559721304  0.5760117024898932
  0.3119590372449039  0.3300859259684827  0.5448651894361944
  0.2504904477549630  0.3654082352651429  0.5430461485308555
  0.2189550492592218  0.3733043235656552  0.5118993052952092
  0.1480949960894691  0.3711097422721110  0.5100797198438300
  0.1171085033536912  0.3612786805177564  0.4789329953383685
  0.0579490941884515  0.3222140015789776  0.4771135554045927
  0.0367352774151257  0.2975810746742340  0.4459662929039325
  0.0068714262851017  0.2332837029502883  0.4441471398083223
  0.0017324238863736  0.2011829242914587  0.4129999844845287
  0.0100261036366618  0.1307754023805572  0.4111802461930196
  0.0224837421965063  0.1007488155742706  0.3800327481537025
  0.0664796822441645  0.0451583655553023  0.3782128664864572
  0.0928423230279662  0.0261376066261221  0.3470652167247579
  0.1594661800364676  0.0019063839911340  0.3452452659199636
  0.1918916069510388  0.9995578183471210  0.3140984512977951
  0.2613204065203121  0.0138990636920084  0.3122795265061953
  0.2901606881536551  0.0289098292006713  0.2811329380004821
  0.3417393746650461  0.0775463858066843  0.2793150841691983
  0.3584179457926950  0.1054525444920102  0.2481680211296862
  0.3768102117950747  0.1739189903642284  0.2463493740058453
  0.3763676070646795  0.2064225256650332  0.2152014583495188
  0.3560946221902341  0.2743557218278099  0.2133816669017676
  0.3304711398120617  0.3117634194351453  0.6364504343223558
  0.3069735971488541  0.3342331143599822  0.6053041514715076
  0.2443210550274912  0.3674075873173166  0.6034854916219246
  0.2125304950195428  0.3742133866647066  0.5723387553247150
  0.1417883408780511  0.3695759475666662  0.5705191800494376
  0.1111599423697172  0.3586830999118575  0.5393714536820653
  0.0533828435530879  0.3175997924945051  0.5375518356591584
  0.0330326305381519  0.2922495580289919  0.5064047061545764
  0.0054024383963451  0.2269621507332857  0.5045852998902589
  0.0013758841965554  0.1947037499927546  0.4734388974048329
  0.0120939382028524  0.1246246073402446  0.4716193379787157
  0.0255824035632557  0.0950454099742686  0.4404722759447424
  0.0714684092695563  0.0410047970597844  0.4386528262965541
  0.0984695754774734  0.0229029954922026  0.4075050321874656
  0.1658895775554186  0.0009811351431637  0.4056854684084925
  0.1983740566996133  0.9997491613277063  0.3745376547902097
  0.2672648518431373  0.0164823633574827  0.3727187067741937
  0.2955678360391119  0.0324815029612324  0.3415724829188846
  0.3454326853201906  0.0828728485828023  0.3397543266307537
  0.3611382513158077  0.1113396982193606  0.3086082573861688
  0.3771554373810062  0.1803999361885786  0.3067891416975712
  0.3755946610753682  0.2128695191812682  0.2756416654381084
  0.3529930775447738  0.2800644478682486  0.2738217959892282
  0.3261120354272720  0.3165620460053233  0.6968891299307103
  0.3018515958182064  0.3382076000826828  0.6657429589773614
  0.2380887797813145  0.3691962305440342  0.6639247416478753
  0.2060807504192539  0.3748974660758080  0.6327781736008617
  0.1355403051843709  0.3678230767760695  0.6309588915265394
  0.1053044982227505  0.3558814446423852  0.5998113232047828
  0.0489774972704566  0.3128326649174724  0.5979916539552192
  0.0295135766281547  0.2867960418845712  0.5668438901927431
  0.0041509751681943  0.2205941763439228  0.5650239491263989
  0.0012394499307433  0.1882165295860077  0.5338766695423374
  0.0143704332240659  0.1185500795221586  0.5320572535719421
  0.0288718344854004  0.0894535885917875  0.5009109844854436
  0.0765961124314245  0.0370298551025101  0.4990916852264391
  0.1042070208803239  0.0198679680889597  0.4679450534818130
  0.1723421266905305  0.0002827701567583  0.4661253453127046
  0.2048505150762594  0.0001680820689529  0.4349778172397336
  0.2731226336405967  0.0192692466474043  0.4331582303508057
  0.3008539534004768  0.0362362747452707  0.4020112650297349
  0.3489489483739732  0.0883199032841802  0.4001929291656410
  0.3636566844855835  0.1173143695671470  0.3690467233147601
  0.3772774324669612  0.1868879320189194  0.3672277268452575
  0.3745971723374808  0.2192852912528664  0.3360807765903218
  0.3215856770940988  0.3212063756809229  0.7573291009423215
  0.2965936323553819  0.3419987441936669  0.7261820874621350
  0.2317988891255283  0.3707666266200675  0.7243639367349459
  0.1996132092226972  0.3753599094782487  0.6932172488874073
  0.1293595975859176  0.3658548894400084  0.6913979918913142
  0.0995510141562050  0.3528785401392298  0.6602510368970442
  0.0447391963047181  0.3079170225349017  0.6584312679064439
  0.0261829115341641  0.2812248076257617  0.6272837086427998
  0.0031165204038501  0.2141880626543156  0.6254638580420036
  0.0013254130824834  0.1817285165410638  0.5943163640251896
  0.0168539390568370  0.1125565313047687  0.5924970435371719
  0.0323514140922825  0.0839797072743380  0.5613496785330838
  0.0818553998328539  0.0332336491927165  0.5595306163028297
  0.1100420124770523  0.0170339480095194  0.5283834892199977
  0.1788127642209361  0.9998126900992048  0.5265639558433648
  0.2113061351649321  0.0008166539959120  0.4954172856627608
  0.2788787767345013  0.0222606483972285  0.4935976806711793
  0.3060081437936972  0.0401728299876112  0.4624509653708841
  0.3522743758433720  0.0938884559461215  0.4606319599336501
  0.3659709037100427  0.1233718596480600  0.4294853168960273
  0.3771752330531868  0.1933740235133641  0.4276656882140060
  0.3733790392772605  0.2256609839128672  0.3965192724635784
  0.3169041290111778  0.3256975220773697  0.8177693309795870
  0.2912090256566060  0.3456126738888443  0.7866221517842931
  0.2254601336018567  0.3721263564789723  0.7848038072697463
  0.1931349718446143  0.3756006643505643  0.7536570568385841
  0.1232512772186141  0.3636749855910821  0.7518383607605159
  0.0939093761404521  0.3496783922499986  0.7206910142110416
  0.0406787892867086  0.3028545458213827  0.7188716737949861
  0.0230497498668996  0.2755424236956046  0.6877234582268770
  0.0023068836899256  0.2077505783299358  0.6859033641527290
  0.0016348302272959  0.1752485102831400  0.6547561639402346
  0.0195421913485490  0.1066536286900472  0.6529367406630300
  0.0360169737772082  0.0786272497105998  0.6217897000450563
  0.0872451391358027  0.0296221501309546  0.6199707115712627
  0.1159728130776330  0.0144063390134050  0.5888233767016402
  0.1852968396582781  0.9995723507918584  0.5870036211730962
  0.2177357973101834  0.0016943842062886  0.5558561580275310
  0.2845286566171836  0.0254578165853090  0.5540361370432620
  0.3110245462403967  0.0442907285796466  0.5228886527130854
  0.3554094027670232  0.0995701882106346  0.5210688630372786
  0.3680772978295934  0.1295093981785769  0.4899230459088528
  0.3768568799707026  0.1998565062944948  0.4881032367337639
  0.3719433222978594  0.2319905057254488  0.4569569075018975
  0.3120657033014140  0.3300214103854628  0.8782094193495453
  0.2857005364771297  0.3490389739746149  0.8470618344968699
  0.2190753627316013  0.3732656058655479  0.8452432899762599
  0.1866509359065418  0.3756212658850160  0.8140967677726891
  0.1172215776045036  0.3612852769704489  0.8122779333667438
  0.0883795566761592  0.3462841640368595  0.7811310028482268
  0.0367973362264351  0.2976522296235444  0.7793115985392873
  0.0201190139493690  0.2697498538446936  0.7481639602633265
  0.0017231110490599  0.2012846354447717  0.7463439988435567
  0.0021686174625231  0.1687814962908689  0.7151958232996236
  0.0224351461796317  0.1008455938918047  0.7133763877466777
  0.0398664246587970  0.0734052656854871  0.6822289073572279
  0.0927570920769654  0.0261985269826752  0.6804098745804623
  0.1219930389241242  0.0119850315484129  0.6492629835356141
  0.1917884842480362  0.9995580083459146  0.6474430077273823
  0.2241326472671616  0.0027994974515693  0.6162954307596991
  0.2900662877509816  0.0288518654616112  0.6144751927471219
  0.3158966994799215  0.0485851686454382  0.5833274889124667
  0.3583506712141684  0.1053613534299345  0.5815071528616897
  0.3699757854165213  0.1357168728907325  0.5503596573728302
  0.3763268216355797  0.2063258414163656  0.5485395000603575
  0.3703017095050427  0.2382717382592929  0.5173932629717513
  0.3070757192916460  0.3341736301343659  0.9386511395724213
  0.2800724848201170  0.3522700465708155  0.9075027521581873
  0.2126498580762117  0.3741830859910280  0.9056838949707284
  0.1801668492397184  0.3754190919876947  0.8745358788315869
  0.1112750478576743  0.3586921234055609  0.8727169028251538
  0.0829713390606770  0.3427015963553899  0.8415699547548456
  0.0330966618958470  0.2923205921027048  0.8397506247317921
  0.0173903724096149  0.2638588623762175  0.8086035686832957
  0.0013648994017856  0.1948003696652307  0.8067837743332689
  0.0029297514525481  0.1623324338031296  0.7756358607697393
  0.0255278467994557  0.0951365367156640  0.7738162881625925
  0.0438968353365468  0.0683179850530351  0.7426687714365556
  0.0983872451182535  0.0229675259641624  0.7408494854143299
  0.1280958463367554  0.0097729274041072  0.7097019771241690
  0.1982802078749657  0.9997676965366793  0.7078817952768972
  0.2304919634185012  0.0041233118882644  0.6767340301319535
  0.2954871551575664  0.0324336865508386  0.6749135471186420
  0.3206190089954433  0.0530466296766505  0.6437659485218461
  0.3610919814824030  0.1112520579539620  0.6419450840310930
  0.3716644291828644  0.1419898020004808  0.6107976319096267
  0.3755809397523961  0.2127753677094475  0.6089774147481961
  0.3684549086057913  0.2444931261559162  0.5778306945320466
  0.3019445727172894  0.3381499737299833  0.9990918520101602
  0.2743319024421851  0.3553037972417741  0.9679441282993153
  0.2061936429789526  0.3748769604216733  0.9661250491776983
  0.1736883688028854  0.3749917651074881  0.9349767676388723
  0.1054143434420354  0.3558985575204048  0.9331573969158597
  0.0776818786591349  0.3389406891285489  0.9020093673047143
  0.0295749436951738  0.2868683720326999  0.9001900475417628
  0.0148631597083337  0.2578807469767881  0.8690425204347534
  0.0012328682376079  0.1883095642159631  0.8672228108199533
  0.0039158506297312  0.1559137655811469  0.8360754896145011
  0.0288180132442477  0.0895382974041539  0.8342558201201200
  0.0481008953401698  0.0633689762229892  0.8031083622075172
  0.1041284950752015  0.0199313532638641  0.8012888618108320
  0.1342749503393676  0.0077737482354863  0.7701411227806148
  0.2047628404397130  0.0001973160362070  0.7683207662075091
  0.2368041411440629  0.0056643325363979  0.7371729209272573
  0.3007855483339057  0.0361975536700072  0.7353523128026680
  0.3251902944361760  0.0576664463327035  0.7042041483961157
  0.3636340578060953  0.1172306524918696  0.7023834700692220
  0.3731405515657258  0.1483150214266900  0.6712357788395948
  0.3746154418640870  0.2191936382103847  0.6694158592771373
  0.3663991769562074  0.2506475915955804  0.6382691235591835
  0.1672274991581091  0.3743407457732886  0.9954173660073877
  0.0996532354829895  0.3529029557652024  0.9935978724102412
  0.0725228712427821  0.3349993192328711  0.9624500309054582
  0.0262437369539370  0.2812958295839465  0.9606305498637155
  0.0125426745191390  0.2518186180637301  0.9294825615087987
  0.0013266875177251  0.1818181408182085  0.9276627983442154
  0.0051246644577887  0.1495348040510933  0.8965149663091765
  0.0323044996382293  0.0840584759307106  0.8946953426608175
  0.0524774113620623  0.0585703680008649  0.8635474062354973
  0.1099711745147616  0.0170929577419301  0.8617276948773878
  0.1405199070817176  0.0059854603618277  0.8305801021295736
  0.2112265489667990  0.0008458791794155  0.8287596783220579
  0.2430603611756723  0.0074173053530373  0.7976119754407875
  0.3059505960848057  0.0401381595303363  0.7957916861055381
  0.3296011781326058  0.0624366862827017  0.7646435887305643
  0.3659655973413010  0.1232930298991590  0.7628230981336017
  0.3743962781238750  0.1546866645910399  0.7316750892032431
  0.3734261077903582  0.2255736466972920  0.7298552464822166
  0.3641305973580558  0.2567246507908152  0.6987079824614923
  0.0104304143005791  0.2456774190918480  0.9899224491734131
  0.0016404558426615  0.1753316597670818  0.9881026823836763
  0.0065552773616133  0.1432006000983321  0.9569550273562513
  0.0359790973854572  0.0787018163467579  0.9551355707960028
  0.0570205237509853  0.0539272839024392  0.9239872533833520
  0.1159108475864556  0.0144583124543942  0.9221674510838369
  0.1468230529478021  0.0044115800850264  0.8910191702021137
  0.2176654462428900  0.0017135799178121  0.8891991104717576
  0.2492527008104801  0.0093807320530246  0.8580509417211744
  0.3109766742655822  0.0442531022160466  0.8562306613294126
  0.3338435083845468  0.0673563803348500  0.8250829747329220
  0.3680864735381064  0.1294312462987435  0.8232629629083092
  0.3754285556891972  0.1610970667255813  0.7921152099384656
  0.3720133203347658  0.2319082177081100  0.7902956101065683
  0.3616497430020331  0.2627194064674114  0.7591477974945988
  0.0617166595822241  0.0494373467335691  0.9844271888160989
  0.1219353180025990  0.0120269660268519  0.9826078150453128
  0.1531765514251120  0.0030536611439373  0.9514597054803176
  0.2240700014253747  0.0028030565955248  0.9496398741205709
  0.2553738761844286  0.0115561661741665  0.9184911738465829
  0.3158569175946369  0.0485387574062131  0.9166712773397805
  0.3379112875382972  0.0724181964600206  0.8855228185442812
  0.3699905616694252  0.1356389216799485  0.8837030077015484
  0.3762375912273157  0.1675394233890657  0.8525549373288897
  0.3703812345446451  0.2381906801810345  0.8507355406007235
  0.3589621348108736  0.2686273047134762  0.8195881387702570
  0.2614158268470987  0.0139430649803742  0.9789321156593971
  0.3205843019263312  0.0529939485092683  0.9771126114780486
  0.3418016996365196  0.0776182653718891  0.9459640609241475
  0.3716808521541495  0.1419081116359777  0.9441444598364228
  0.3768213284539996  0.1740053142805991  0.9129958811172543
  0.3685305953217792  0.2444132525142777  0.9111765255244464
  0.3560687746120479  0.2744365009337812  0.8800282718912129
  0.3771832960424888  0.1804887381668721  0.9734370996849151
  0.3664646101375197  0.2505679591391043  0.9716179955238502
  0.3529727207393947  0.2801426151187343  0.9404697978359877